c status 8 1469274441193
c status 7 1469274441193
s td 12 7 18
b 1 1 14 2 15
b 2 18 12 7 9
b 3 17 6 8 11
b 4 16 5 2 7
b 5 3 10 8 13
b 6 4 14 5 9
b 7 6 8 9 11 15
b 8 12 7 9 11 13
b 9 10 8 7 13 15
b 10 14 5 2 9 13 15
b 11 5 8 2 7 9 13 15
b 12 8 2 7 9 11 13 15
1 10
10 11
11 12
12 9
12 8
12 7
9 5
10 6
8 2
7 3
11 4
